50
18609

980 678
98 911
199 179
830 990
505 860
37 666
460 306
229 386
300 763
693 238
88 36
339 451
598 680
1000 910
832 656
264 533
390 503
263 575
704 542
782 406
35 558
279 274
631 739
294 232
415 379
306 32
551 453
164 830
832 118
473 207
53 72
229 592
679 537
157 457
957 93
313 440
51 884
794 486
767 828
418 649
342 438
359 523
192 78
798 746
891 867
643 686
52 786
791 739
228 452
460 254
